156
1000000
347731
309315
337306
2385
511158
11812
408352
109534
80062
310026
125509
148360
208122
523106
423920
533973
333784
307036
224777
553852
299096
339126
719866
458460
321482
467835
341673
36293
541540
278404
165712
343728
280134
525248
476894
60913
107322
344788
256250
270958
26161
26206
743579
537692
181500
248311
366849
506187
586818
74816
45299
236954
263314
425076
149419
192355
289621
666216
678345
447667
160711
191202
392494
173033
273769
426824
539922
398962
139837
233301
86549
181465
243286
717501
75259
85367
62796
517652
144684
335
128233
139154
352229
326574
503468
321230
127678
501303
143733
138659
35485
304735
271181
705962
570
173635
278329
662982
5902
95128
124807
152773
147924
261363
438244
595247
455050
109370
52128
502268
275800
726825
131024
192375
19020
282499
358578
178951
192451
562455
488644
237306
251956
181162
4025
462308
548619
428752
191637
329098
75876
373241
345259
508120
185696
337018
30820
488842
107294
123510
8911
146702
54212
405229
219082
94693
552845
366453
117504
466027
228566
607506
16922
115726
676245
65696
